clingo version 5.5.2
Reading from ...nt/beegfs/home/jubruns/encoding/mif.lp ...
Solving...
Answer: 1
move(1,(10,1),(10,2),1) move(1,(10,2),(10,3),2) move(1,(10,3),(10,4),3) move(1,(10,4),(10,5),4) move(1,(10,5),(10,6),5) move(1,(10,6),(10,7),6) move(1,(10,7),(11,7),7) move(1,(11,7),(11,8),8) move(1,(11,8),(11,9),9) move(1,(11,9),(10,9),10) move(1,(10,9),(10,10),11) move(1,(10,10),(10,11),12) move(1,(10,11),(10,12),13) move(1,(10,12),(10,13),14) move(1,(10,13),(10,14),15) move(1,(10,14),(9,14),16)
SATISFIABLE

Models       : 1+
Calls        : 1
Time         : 0.290s (Solving: 0.02s 1st Model: 0.02s Unsat: 0.00s)
CPU Time     : 0.256s

Choices      : 1155     (Domain: 56)
Conflicts    : 6        (Analyzed: 6)
Restarts     : 0       
Model-Level  : 1099.0  
Problems     : 1        (Average Length: 0.00 Splits: 0)
Lemmas       : 15       (Deleted: 0)
  Binary     : 1        (Ratio:   6.67%)
  Ternary    : 0        (Ratio:   0.00%)
  Conflict   : 6        (Average Length:    6.5 Ratio:  40.00%) 
  Loop       : 9        (Average Length:  137.4 Ratio:  60.00%) 
  Other      : 0        (Average Length:    0.0 Ratio:   0.00%) 
Backjumps    : 6        (Average:  9.33 Max:  31 Sum:     56)
  Executed   : 6        (Average:  9.33 Max:  31 Sum:     56 Ratio: 100.00%)
  Bounded    : 0        (Average:  0.00 Max:   0 Sum:      0 Ratio:   0.00%)

Rules        : 145902   (Original: 147267)
  Choice     : 2194    
  Heuristic  : 56890    (Original: 96271)
Atoms        : 51474    (Original: 36910 Auxiliary: 14564)
Bodies       : 52456    (Original: 34998)
  Count      : 0        (Original: 3570)
Equivalences : 54831    (Atom=Atom: 10247 Body=Body: 3522 Other: 41062)
Tight        : No       (SCCs: 1 Non-Hcfs: 0 Nodes: 10562 Gammas: 0)
Variables    : 42741    (Eliminated:    0 Frozen: 5282)
Constraints  : 120637   (Binary:  76.9% Ternary:  18.4% Other:   4.8%)

